p edge 64 704
e 1 16 18
e 1 24 26
e 1 28 30
e 1 30 32
e 1 31 33
e 1 32 34
e 1 40 42
e 1 44 46
e 1 46 48
e 1 47 49
e 1 48 50
e 1 52 54
e 1 54 56
e 1 55 57
e 1 56 58
e 1 58 60
e 1 59 61
e 1 60 62
e 1 61 63
e 1 62 64
e 1 63 65
e 1 64 66
e 2 15 18
e 2 23 26
e 2 27 30
e 2 29 32
e 2 31 34
e 2 32 35
e 2 39 42
e 2 43 46
e 2 45 48
e 2 47 50
e 2 48 51
e 2 51 54
e 2 53 56
e 2 55 58
e 2 56 59
e 2 57 60
e 2 59 62
e 2 60 63
e 2 61 64
e 2 62 65
e 2 63 66
e 2 64 67
e 3 14 18
e 3 22 26
e 3 26 30
e 3 29 33
e 3 30 34
e 3 32 36
e 3 38 42
e 3 42 46
e 3 45 49
e 3 46 50
e 3 48 52
e 3 50 54
e 3 53 57
e 3 54 58
e 3 56 60
e 3 57 61
e 3 58 62
e 3 60 64
e 3 61 65
e 3 62 66
e 3 63 67
e 3 64 68
e 4 13 18
e 4 21 26
e 4 25 30
e 4 29 34
e 4 30 35
e 4 31 36
e 4 37 42
e 4 41 46
e 4 45 50
e 4 46 51
e 4 47 52
e 4 49 54
e 4 53 58
e 4 54 59
e 4 55 60
e 4 57 62
e 4 58 63
e 4 59 64
e 4 61 66
e 4 62 67
e 4 63 68
e 4 64 69
e 5 12 18
e 5 20 26
e 5 26 32
e 5 27 33
e 5 28 34
e 5 32 38
e 5 36 42
e 5 42 48
e 5 43 49
e 5 44 50
e 5 48 54
e 5 50 56
e 5 51 57
e 5 52 58
e 5 56 62
e 5 57 63
e 5 58 64
e 5 59 65
e 5 60 66
e 5 62 68
e 5 63 69
e 5 64 70
e 6 11 18
e 6 19 26
e 6 25 32
e 6 27 34
e 6 28 35
e 6 31 38
e 6 35 42
e 6 41 48
e 6 43 50
e 6 44 51
e 6 47 54
e 6 49 56
e 6 51 58
e 6 52 59
e 6 55 62
e 6 57 64
e 6 58 65
e 6 59 66
e 6 60 67
e 6 61 68
e 6 63 70
e 6 64 71
e 7 10 18
e 7 18 26
e 7 25 33
e 7 26 34
e 7 28 36
e 7 30 38
e 7 34 42
e 7 41 49
e 7 42 50
e 7 44 52
e 7 46 54
e 7 49 57
e 7 50 58
e 7 52 60
e 7 54 62
e 7 57 65
e 7 58 66
e 7 59 67
e 7 60 68
e 7 61 69
e 7 62 70
e 7 64 72
e 8 9 18
e 8 17 26
e 8 25 34
e 8 26 35
e 8 27 36
e 8 29 38
e 8 33 42
e 8 41 50
e 8 42 51
e 8 43 52
e 8 45 54
e 8 49 58
e 8 50 59
e 8 51 60
e 8 53 62
e 8 57 66
e 8 58 67
e 8 59 68
e 8 60 69
e 8 61 70
e 8 62 71
e 8 63 72
e 9 20 30
e 9 22 32
e 9 23 33
e 9 24 34
e 9 32 42
e 9 36 46
e 9 38 48
e 9 39 49
e 9 40 50
e 9 48 58
e 9 50 60
e 9 51 61
e 9 52 62
e 9 53 63
e 9 54 64
e 9 55 65
e 9 56 66
e 9 60 70
e 9 62 72
e 9 63 73
e 9 64 74
e 10 19 30
e 10 21 32
e 10 23 34
e 10 24 35
e 10 31 42
e 10 35 46
e 10 37 48
e 10 39 50
e 10 40 51
e 10 47 58
e 10 49 60
e 10 51 62
e 10 52 63
e 10 53 64
e 10 54 65
e 10 55 66
e 10 56 67
e 10 59 70
e 10 61 72
e 10 63 74
e 10 64 75
e 11 18 30
e 11 21 33
e 11 22 34
e 11 24 36
e 11 30 42
e 11 34 46
e 11 37 49
e 11 38 50
e 11 40 52
e 11 46 58
e 11 49 61
e 11 50 62
e 11 52 64
e 11 53 65
e 11 54 66
e 11 55 67
e 11 56 68
e 11 58 70
e 11 61 73
e 11 62 74
e 11 64 76
e 12 17 30
e 12 21 34
e 12 22 35
e 12 23 36
e 12 29 42
e 12 33 46
e 12 37 50
e 12 38 51
e 12 39 52
e 12 45 58
e 12 49 62
e 12 50 63
e 12 51 64
e 12 53 66
e 12 54 67
e 12 55 68
e 12 56 69
e 12 57 70
e 12 61 74
e 12 62 75
e 12 63 76
e 13 18 32
e 13 19 33
e 13 20 34
e 13 24 38
e 13 28 42
e 13 34 48
e 13 35 49
e 13 36 50
e 13 40 54
e 13 44 58
e 13 49 63
e 13 50 64
e 13 51 65
e 13 52 66
e 13 54 68
e 13 55 69
e 13 56 70
e 13 58 72
e 13 59 73
e 13 60 74
e 13 64 78
e 14 17 32
e 14 19 34
e 14 20 35
e 14 23 38
e 14 27 42
e 14 33 48
e 14 35 50
e 14 36 51
e 14 39 54
e 14 43 58
e 14 49 64
e 14 50 65
e 14 51 66
e 14 52 67
e 14 53 68
e 14 55 70
e 14 56 71
e 14 57 72
e 14 59 74
e 14 60 75
e 14 63 78
e 15 17 33
e 15 18 34
e 15 20 36
e 15 22 38
e 15 26 42
e 15 33 49
e 15 34 50
e 15 36 52
e 15 38 54
e 15 42 58
e 15 49 65
e 15 50 66
e 15 51 67
e 15 52 68
e 15 53 69
e 15 54 70
e 15 56 72
e 15 57 73
e 15 58 74
e 15 60 76
e 15 62 78
e 16 17 34
e 16 18 35
e 16 19 36
e 16 21 38
e 16 25 42
e 16 33 50
e 16 34 51
e 16 35 52
e 16 37 54
e 16 41 58
e 16 49 66
e 16 50 67
e 16 51 68
e 16 52 69
e 16 53 70
e 16 54 71
e 16 55 72
e 16 57 74
e 16 58 75
e 16 59 76
e 16 61 78
e 17 32 50
e 17 36 54
e 17 38 56
e 17 39 57
e 17 40 58
e 17 42 60
e 17 43 61
e 17 44 62
e 17 45 63
e 17 46 64
e 17 47 65
e 17 48 66
e 17 56 74
e 17 60 78
e 17 62 80
e 17 63 81
e 17 64 82
e 18 31 50
e 18 35 54
e 18 37 56
e 18 39 58
e 18 40 59
e 18 41 60
e 18 43 62
e 18 44 63
e 18 45 64
e 18 46 65
e 18 47 66
e 18 48 67
e 18 55 74
e 18 59 78
e 18 61 80
e 18 63 82
e 18 64 83
e 19 30 50
e 19 34 54
e 19 37 57
e 19 38 58
e 19 40 60
e 19 41 61
e 19 42 62
e 19 44 64
e 19 45 65
e 19 46 66
e 19 47 67
e 19 48 68
e 19 54 74
e 19 58 78
e 19 61 81
e 19 62 82
e 19 64 84
e 20 29 50
e 20 33 54
e 20 37 58
e 20 38 59
e 20 39 60
e 20 41 62
e 20 42 63
e 20 43 64
e 20 45 66
e 20 46 67
e 20 47 68
e 20 48 69
e 20 53 74
e 20 57 78
e 20 61 82
e 20 62 83
e 20 63 84
e 21 28 50
e 21 34 56
e 21 35 57
e 21 36 58
e 21 40 62
e 21 41 63
e 21 42 64
e 21 43 65
e 21 44 66
e 21 46 68
e 21 47 69
e 21 48 70
e 21 52 74
e 21 58 80
e 21 59 81
e 21 60 82
e 21 64 86
e 22 27 50
e 22 33 56
e 22 35 58
e 22 36 59
e 22 39 62
e 22 41 64
e 22 42 65
e 22 43 66
e 22 44 67
e 22 45 68
e 22 47 70
e 22 48 71
e 22 51 74
e 22 57 80
e 22 59 82
e 22 60 83
e 22 63 86
e 23 26 50
e 23 33 57
e 23 34 58
e 23 36 60
e 23 38 62
e 23 41 65
e 23 42 66
e 23 43 67
e 23 44 68
e 23 45 69
e 23 46 70
e 23 48 72
e 23 50 74
e 23 57 81
e 23 58 82
e 23 60 84
e 23 62 86
e 24 25 50
e 24 33 58
e 24 34 59
e 24 35 60
e 24 37 62
e 24 41 66
e 24 42 67
e 24 43 68
e 24 44 69
e 24 45 70
e 24 46 71
e 24 47 72
e 24 49 74
e 24 57 82
e 24 58 83
e 24 59 84
e 24 61 86
e 25 34 60
e 25 35 61
e 25 36 62
e 25 37 63
e 25 38 64
e 25 39 65
e 25 40 66
e 25 44 70
e 25 46 72
e 25 47 73
e 25 48 74
e 25 52 78
e 25 54 80
e 25 55 81
e 25 56 82
e 25 64 90
e 26 33 60
e 26 35 62
e 26 36 63
e 26 37 64
e 26 38 65
e 26 39 66
e 26 40 67
e 26 43 70
e 26 45 72
e 26 47 74
e 26 48 75
e 26 51 78
e 26 53 80
e 26 55 82
e 26 56 83
e 26 63 90
e 27 33 61
e 27 34 62
e 27 36 64
e 27 37 65
e 27 38 66
e 27 39 67
e 27 40 68
e 27 42 70
e 27 45 73
e 27 46 74
e 27 48 76
e 27 50 78
e 27 53 81
e 27 54 82
e 27 56 84
e 27 62 90
e 28 33 62
e 28 34 63
e 28 35 64
e 28 37 66
e 28 38 67
e 28 39 68
e 28 40 69
e 28 41 70
e 28 45 74
e 28 46 75
e 28 47 76
e 28 49 78
e 28 53 82
e 28 54 83
e 28 55 84
e 28 61 90
e 29 33 63
e 29 34 64
e 29 35 65
e 29 36 66
e 29 38 68
e 29 39 69
e 29 40 70
e 29 42 72
e 29 43 73
e 29 44 74
e 29 48 78
e 29 50 80
e 29 51 81
e 29 52 82
e 29 56 86
e 29 60 90
e 30 33 64
e 30 34 65
e 30 35 66
e 30 36 67
e 30 37 68
e 30 39 70
e 30 40 71
e 30 41 72
e 30 43 74
e 30 44 75
e 30 47 78
e 30 49 80
e 30 51 82
e 30 52 83
e 30 55 86
e 30 59 90
e 31 33 65
e 31 34 66
e 31 35 67
e 31 36 68
e 31 37 69
e 31 38 70
e 31 40 72
e 31 41 73
e 31 42 74
e 31 44 76
e 31 46 78
e 31 49 81
e 31 50 82
e 31 52 84
e 31 54 86
e 31 58 90
e 32 33 66
e 32 34 67
e 32 35 68
e 32 36 69
e 32 37 70
e 32 38 71
e 32 39 72
e 32 41 74
e 32 42 75
e 32 43 76
e 32 45 78
e 32 49 82
e 32 50 83
e 32 51 84
e 32 53 86
e 32 57 90
e 33 48 82
e 33 56 90
e 33 60 94
e 33 62 96
e 33 63 97
e 33 64 98
e 34 47 82
e 34 55 90
e 34 59 94
e 34 61 96
e 34 63 98
e 34 64 99
e 35 46 82
e 35 54 90
e 35 58 94
e 35 61 97
e 35 62 98
e 35 64 100
e 36 45 82
e 36 53 90
e 36 57 94
e 36 61 98
e 36 62 99
e 36 63 100
e 37 44 82
e 37 52 90
e 37 58 96
e 37 59 97
e 37 60 98
e 37 64 102
e 38 43 82
e 38 51 90
e 38 57 96
e 38 59 98
e 38 60 99
e 38 63 102
e 39 42 82
e 39 50 90
e 39 57 97
e 39 58 98
e 39 60 100
e 39 62 102
e 40 41 82
e 40 49 90
e 40 57 98
e 40 58 99
e 40 59 100
e 40 61 102
e 41 52 94
e 41 54 96
e 41 55 97
e 41 56 98
e 41 64 106
e 42 51 94
e 42 53 96
e 42 55 98
e 42 56 99
e 42 63 106
e 43 50 94
e 43 53 97
e 43 54 98
e 43 56 100
e 43 62 106
e 44 49 94
e 44 53 98
e 44 54 99
e 44 55 100
e 44 61 106
e 45 50 96
e 45 51 97
e 45 52 98
e 45 56 102
e 45 60 106
e 46 49 96
e 46 51 98
e 46 52 99
e 46 55 102
e 46 59 106
e 47 49 97
e 47 50 98
e 47 52 100
e 47 54 102
e 47 58 106
e 48 49 98
e 48 50 99
e 48 51 100
e 48 53 102
e 48 57 106
e 49 64 114
e 50 63 114
e 51 62 114
e 52 61 114
e 53 60 114
e 54 59 114
e 55 58 114
e 56 57 114
n 1 0
n 2 0
n 3 0
n 4 0
n 5 0
n 6 0
n 7 0
n 8 0
n 9 0
n 10 0
n 11 0
n 12 0
n 13 0
n 14 0
n 15 0
n 16 0
n 17 0
n 18 0
n 19 0
n 20 0
n 21 0
n 22 0
n 23 0
n 24 0
n 25 0
n 26 0
n 27 0
n 28 0
n 29 0
n 30 0
n 31 0
n 32 0
n 33 0
n 34 0
n 35 0
n 36 0
n 37 0
n 38 0
n 39 0
n 40 0
n 41 0
n 42 0
n 43 0
n 44 0
n 45 0
n 46 0
n 47 0
n 48 0
n 49 0
n 50 0
n 51 0
n 52 0
n 53 0
n 54 0
n 55 0
n 56 0
n 57 0
n 58 0
n 59 0
n 60 0
n 61 0
n 62 0
n 63 0
n 64 0
